letting n =  10
letting blocks =  [[1, 5], [1, 9], [2, 2], [2, 9], [3, 6], [4, 5], [4, 6], [4, 10], [5, 2], [5, 4], [6, 1], [6, 2], [6, 8], [7, 1], [7, 4], [7, 10], [8, 2], [8, 8], [8, 9], [9, 1], [9, 3], [9, 6], [10, 5], [10, 8]]
